(declare-const in0 Int)
(declare-const in2 Int)
(declare-const in1 Int)
(declare-const in4 Int)
(declare-const in3 Int)
(declare-const in6 Int)
(declare-const in5 Int)
(declare-const in8 Int)
(declare-const in20 Int)
(declare-const in7 Int)
(declare-const in11 Int)
(declare-const in22 Int)
(declare-const in10 Int)
(declare-const in9 Int)
(declare-const in21 Int)
(declare-const in13 Int)
(declare-const in12 Int)
(declare-const in23 Int)
(declare-const in15 Int)
(declare-const in14 Int)
(declare-const in17 Int)
(declare-const in16 Int)
(declare-const in19 Int)
(declare-const in18 Int)

(assert (and (and (and (and (and (and (and (and (and (and (and  ( <  in0 in23)  ( <  in1 in22))  ( <  in2 in21))  ( <  in3 in20))  ( <  in4 in19))  ( <  in5 in18))  ( <  in6 in17))  ( <  in7 in16))  ( <  in8 in15))  ( <  in9 in14))  ( <  in10 in13))  ( <  in11 in12)))

(check-sat)
(get-model)